# Objective value = 95600
x66 0
x67 0
x68 1
x69 0
x70 1
x71 1
x72 1
x73 0
x74 0
x75 0
x76 0
x77 1
x78 1
x79 1
x80 0
x81 0
x82 1
x83 1
x84 1
x85 0
x86 1
x87 1
x88 0
x89 0
x90 0
x91 1
x92 0
x93 0
x94 0
x95 1
x96 1
x97 1
x98 0
x99 1
x100 1
x101 0
x102 0
x103 1
x104 1
x105 1
x106 0
x107 1
x108 1
x109 0
x110 1
x111 1
x112 0
x113 0
x114 0
x115 1
x116 0
x117 0
x118 1
x119 0
x120 0
x121 0
x122 1
x123 1
x124 1
x125 0
x126 1
x127 1
x128 0
x129 1
x130 1
x131 0
x132 0
x133 1
x134 1
x135 1
x136 0
x137 1
x138 1
x139 0
x140 1
x141 1
x142 0
x143 1
x144 1
x145 0
x146 0
x147 0
x148 1
x149 0
x150 0
x151 1
x152 0
x153 0
x154 1
x155 0
x156 0
x157 0
x158 1
x159 1
x160 1
x161 0
x162 1
x163 1
x164 0
x165 1
x166 1
x167 0
x168 1
x169 1
x170 0
x171 0
x172 1
x173 1
x174 1
x175 0
x176 1
x177 1
x178 0
x179 1
x180 1
x181 0
x182 1
x183 1
x184 0
x185 1
x186 0
x187 1
x188 1
x189 1
x190 0
x191 1
x192 1
x193 0
x194 1
x195 1
x196 0
x197 1
x198 1
x199 0
x200 1
x201 1
x202 1
x203 0
x204 0
x205 0
x206 1
x207 0
x208 1
x209 0
x210 1
x211 1
x212 1
x213 0
x214 0
x215 1
x216 0
x217 0
x218 1
x219 1
x220 1
x221 0
x222 1
x223 1
x224 0
x225 1
x226 0
x227 1
x228 1
x229 1
x230 0
x231 1
x232 1
x233 0
x234 1
x235 1
x236 0
x237 1
x238 1
x239 0
x240 1
x241 1
x242 0
x243 0
x244 1
x245 1
x246 1
x247 1
x248 0
x249 0
x250 1
x251 0
x252 1
x253 0
x254 1
x255 0
x256 0
x257 0
x258 0
x259 0
x260 1
x261 1
x262 0
x263 1
x264 1
x265 1
x266 0
x267 1
x268 1
x269 1
x270 1
x271 0
x272 0
x273 1
x274 1
x275 0
x276 1
x277 1
x278 1
x279 0
x280 1
x281 1
x282 1
x283 1
x284 0
x285 1
x286 0
x287 1
x288 1
x289 1
x290 0
x291 1
x292 1
x293 0
x294 1
x295 1
x296 1
x297 1
x298 0
x299 1
x300 1
x301 0
x302 1
x303 1
x304 1
x305 0
x306 1
x307 1
x308 0
x309 1
x310 1
x311 1
x312 1
x313 0
x314 1
x315 1
x316 1
x317 1
x318 0
x319 1
x320 0
x321 1
x322 0
x323 0
x324 1
x325 0
x326 0
x327 0
x328 0
x329 1
x330 0
x331 0
x332 0
x333 0
x334 0
x335 0
x336 1
x337 1
x338 0
x339 1
x340 1
x341 0
x342 1
x343 1
x344 1
x345 1
x346 0
x347 1
x348 1
x349 1
x350 1
x351 0
x352 0
x353 1
x354 1
x355 0
x356 1
x357 1
x358 1
x359 0
x360 1
x361 1
x362 1
x363 1
x364 0
x365 1
x366 1
x367 1
x368 1
x369 0
x370 1
x371 0
x372 1
x373 1
x374 0
x375 1
x376 1
x377 1
x378 0
x379 1
x380 1
x381 1
x382 1
x383 0
x384 1
x385 1
x386 1
x387 1
x388 0
x389 1
x390 1
x391 0
x392 1
x393 0
x394 0
x395 1
x396 1
x397 1
x398 0
x399 1
x400 1
x401 1
x402 1
x403 0
x404 1
x405 1
x406 1
x407 1
x408 0
x409 1
x410 1
x411 1
x412 1
x413 1
x414 0
x415 1
x416 0
x417 0
x418 0
x419 1
x420 0
x421 0
x422 0
x423 0
x424 1
x425 0
x426 0
x427 0
x428 0
x429 1
x430 0
x431 0
x432 0
x433 0
x434 0
x435 1
x436 1
x437 1
x438 0
x439 1
x440 0
x441 1
x442 1
x443 1
x444 1
x445 0
x446 1
x447 1
x448 1
x449 0
x450 1
x451 0
x452 1
x453 1
x454 1
x455 0
x456 1
x457 1
x458 0
x459 0
x460 0
x461 1
x462 1
x463 1
x464 0
x465 0
x466 0
x467 0
x468 0
x469 0
x470 0
x471 1
x472 1
x473 1
x474 0
x475 1
x476 0
x477 1
x478 1
x479 1
x480 1
x481 1
x482 1
x483 0
x484 0
x485 1
x486 1
x487 1
x488 0
x489 1
x490 0
x491 1
x492 0
x493 1
x494 1
x495 1
x496 1
x497 0
x498 1
x499 0
x500 1
x501 1
x502 1
x503 0
x504 1
x505 1
x506 1
x507 0
x508 1
x509 1
x510 1
x511 1
x512 0
x513 1
x514 1
x515 0
x516 1
x517 1
x518 1
x519 0
x520 1
x521 1
x522 1
x523 0
x524 1
x525 1
x526 1
x527 1
x528 0
x529 1
x530 1
x531 1
x532 1
x533 1
x534 0
x535 0
x536 1
x537 0
x538 0
x539 0
x540 1
x541 0
x542 0
x543 0
x544 0
x545 1
x546 0
x547 0
x548 0
x549 0
x550 1
x551 0
x552 1
x553 0
x554 0
x555 1
x556 0
x557 0
x558 1
x559 0
x560 0
x561 0
x562 0
x563 1
x564 0
x565 0
x566 0
x567 0
x568 1
x569 0
x570 1
x571 0
x572 1
x573 1
x574 1
x575 1
x576 1
x577 0
x578 1
x579 1
x580 1
x581 1
x582 0
x583 1
x584 1
x585 1
x586 1
x587 0
x588 0
x589 0
x590 1
x591 0
x592 1
x593 1
x594 1
x595 1
x596 1
x597 0
x598 1
x599 1
x600 1
x601 1
x602 0
x603 1
x604 1
x605 1
x606 1
x607 0
x608 0
x609 1
x610 0
x611 1
x612 0
x613 1
x614 1
x615 1
x616 1
x617 1
x618 0
x619 1
x620 0
x621 1
x622 1
x623 0
x624 1
x625 1
x626 1
x627 1
x628 0
x629 0
x630 1
x631 1
x632 0
x633 1
x634 0
x635 1
x636 1
x637 1
x638 1
x639 1
x640 1
x641 1
x642 0
x643 1
x644 1
x645 0
x646 1
x647 1
x648 1
x649 1
x650 0
x651 0
x652 1
x653 1
x654 1
x655 1
x656 1
x657 1
x658 0
x659 0
x660 0
x661 0
x662 0
x663 0
x664 0
x665 1
x666 0
x667 0
x668 1
x669 0
x670 0
x671 0
x672 0
x673 1
x674 1
x675 0
x676 0
x677 0
x678 0
x679 0
x680 1
x681 0
x682 1
x683 1
x684 1
x685 0
x686 1
x687 1
x688 1
x689 0
x690 1
x691 1
x692 0
x693 1
x694 1
x695 1
x696 1
x697 0
x698 0
x699 1
x700 1
x701 1
x702 1
x703 0
x704 0
x705 1
x706 0
x707 1
x708 1
x709 1
x710 1
x711 1
x712 1
x713 1
x714 0
x715 1
x716 1
x717 0
x718 1
x719 1
x720 1
x721 1
x722 0
x723 0
x724 1
x725 1
x726 1
x727 1
x728 0
x729 1
x730 0
x731 1
x732 1
x733 1
x734 0
x735 1
x736 0
x737 1
x738 1
x739 1
x740 1
x741 1
x742 1
x743 0
x744 1
x745 0
x746 1
x747 1
x748 0
x749 0
x750 0
x751 1
x752 0
x753 1
x754 0
x755 0
x756 0
x757 1
x758 0
x759 0
x760 1
x761 0
x762 0
x763 1
x764 0
x765 0
x766 1
x767 1
x768 1
x769 0
x770 0
x771 0
x772 1
x773 1
x774 1
x775 1
x776 1
x777 1
x778 0
x779 1
x780 1
x781 1
x782 1
x783 0
x784 0
x785 1
x786 1
x787 1
x788 0
x789 1
x790 0
x791 1
x792 1
x793 1
x794 1
x795 1
x796 1
x797 0
x798 1
x799 1
x800 1
x801 1
x802 0
x803 1
x804 1
x805 0
x806 0
x807 0
x808 1
x809 0
x810 1
x811 0
x812 1
x813 0
x814 0
x815 0
x816 0
x817 0
x818 1
x819 1
x820 0
x821 0
x822 1
x823 0
x824 0
x825 0
x826 1
x827 1
x828 1
x829 0
x830 1
x831 1
x832 1
x833 0
x834 1
x835 1
x836 1
x837 1
x838 1
x839 0
x840 1
x841 0
x842 1
x843 0
x844 1
x845 1
x846 0
x847 0
x848 1
x849 1
x850 1
x851 0
x852 1
x853 1
x854 1
x855 0
x856 1
x857 1
x858 1
x859 1
x860 1
x861 0
x862 1
x863 1
x864 1
x865 0
x866 1
x867 1
x868 0
x869 1
x870 0
x871 0
x872 1
x873 1
x874 0
x875 1
x876 1
x877 1
x878 0
x879 1
x880 1
x881 1
x882 1
x883 1
x884 0
x885 1
x886 1
x887 1
x888 0
x889 1
x890 1
x891 0
x892 1
x893 1
x894 0
x895 1
x896 0
x897 1
x898 1
x899 0
x900 1
x901 1
x902 0
x903 1
x904 1
x905 1
x906 1
x907 0
x908 1
x909 1
x910 1
x911 1
x912 0
x913 1
x914 1
x915 0
x916 1
x917 1
x918 1
x919 0
x920 1
x921 0
x922 1
x923 1
x924 1
x925 1
x926 1
x927 0
x928 1
x929 1
x930 1
x931 1
x932 0
x933 1
x934 1
x935 1
x936 1
x937 0
x938 1
x939 1
x940 0
x941 1
x942 1
x943 1
x944 1
x945 0
x946 1
x947 0
x948 1
x949 1
x950 1
x951 1
x952 1
x953 0
x954 1
x955 1
x956 0
x957 1
x958 0
x959 1
x960 1
x961 1
x962 1
x963 0
x964 1
x965 1
x966 0
x967 1
x968 1
x969 1
x970 1
x971 1
x972 1
x973 0
x974 1
x975 0
x976 0
x977 0
x978 0
x979 0
x980 1
x981 0
x982 1
x983 0
x984 1
x985 1
x986 0
x987 0
x988 0
x989 0
x990 1
x991 0
x992 0
x993 1
x994 0
x995 0
x996 0
x997 0
x998 0
x999 0
x1000 0
x1001 1
x1002 0
x1003 1
x1004 1
x1005 1
x1006 1
x1007 1
x1008 1
x1009 1
x1010 0
x1011 1
x1012 1
x1013 1
x1014 0
x1015 1
x1016 1
x1017 1
x1018 0
x1019 1
x1020 1
x1021 0
x1022 1
x1023 1
x1024 1
x1025 1
x1026 1
x1027 1
x1028 0
x1029 0
x1030 0
x1031 0
x1032 1
x1033 1
x1034 1
x1035 1
x1036 1
x1037 1
x1038 1
x1039 0
x1040 1
x1041 1
x1042 1
x1043 0
x1044 1
x1045 1
x1046 1
x1047 0
x1048 1
x1049 1
x1050 0
x1051 1
x1052 1
x1053 1
x1054 1
x1055 1
x1056 1
x1057 0
x1058 1
x1059 1
x1060 0
x1061 1
x1062 0
x1063 0
x1064 0
x1065 1
x1066 0
x1067 0
x1068 0
x1069 1
x1070 1
x1071 0
x1072 0
x1073 1
x1074 0
x1075 0
x1076 0
x1077 1
x1078 0
x1079 0
x1080 1
x1081 0
x1082 0
x1083 0
x1084 0
x1085 0
x1086 0
x1087 1
x1088 0
x1089 0
x1090 0
x1091 1
x1092 0
x1093 1
x1094 1
x1095 1
x1096 1
x1097 1
x1098 1
x1099 1
x1100 0
x1101 1
x1102 0
x1103 1
x1104 0
x1105 1
x1106 1
x1107 1
x1108 0
x1109 1
x1110 1
x1111 0
x1112 1
x1113 1
x1114 1
x1115 1
x1116 1
x1117 1
x1118 0
x1119 1
x1120 1
x1121 0
x1 1
x2 0
x3 0
x4 0
x5 1
x6 0
x7 0
x8 1
x9 0
x10 0
x11 1
x12 0
x13 0
x14 1
x15 0
x16 0
x17 0
x18 1
x19 0
x20 0
x21 0
x22 0
x23 1
x24 0
x25 0
x26 0
x27 0
x28 1
x29 0
x30 0
x31 0
x32 0
x33 1
x34 0
x35 0
x36 1
x37 0
x38 0
x39 0
x40 0
x41 1
x42 1
x43 0
x44 0
x45 0
x46 0
x47 1
x48 0
x49 0
x50 0
x51 1
x52 0
x53 0
x54 1
x55 0
x56 0
x57 0
x58 0
x59 0
x60 0
x61 1
x62 0
x63 0
x64 1
x65 0
